
Gurobi 6.5.2 (linux64) logging started Wed Aug 31 10:35:29 2016

Optimize a model with 101 rows, 908 columns and 1839 nonzeros
Coefficient statistics:
  Matrix range    [1e+00, 2e+00]
  Objective range [2e+00, 1e+02]
  Bounds range    [1e+00, 1e+00]
  RHS range       [1e+00, 1e+00]
Found heuristic solution: objective 3282
Presolve removed 40 rows and 29 columns
Presolve time: 0.00s
Presolved: 61 rows, 879 columns, 1769 nonzeros
Variable types: 0 continuous, 879 integer (879 binary)

Root relaxation: objective 6.285000e+02, 76 iterations, 0.00 seconds

    Nodes    |    Current Node    |     Objective Bounds      |     Work
 Expl Unexpl |  Obj  Depth IntInf | Incumbent    BestBd   Gap | It/Node Time

     0     0  628.50000    0    6 3282.00000  628.50000  80.9%     -    0s
H    0     0                     669.0000000  628.50000  6.05%     -    0s
H    0     0                     647.0000000  628.50000  2.86%     -    0s
     0     0  632.00000    0   10  647.00000  632.00000  2.32%     -    0s
     0     0  632.00000    0    6  647.00000  632.00000  2.32%     -    0s
     0     0  632.00000    0   10  647.00000  632.00000  2.32%     -    0s
*    0     0               0     646.0000000  646.00000  0.00%     -    0s

Cutting planes:
  Gomory: 4
  Zero half: 4

Explored 0 nodes (165 simplex iterations) in 0.02 seconds
Thread count was 8 (of 8 available processors)

Optimal solution found (tolerance 1.00e-04)
Best objective 6.460000000000e+02, best bound 6.460000000000e+02, gap 0.0%
